p cnf 253 412
2 26 32 51 52 0
2 26 32 51 -52 0
2 26 32 -51 52 0
2 26 32 -51 -52 0
2 -21 32 53 54 0
2 -21 32 53 -54 0
2 -21 32 -53 54 0
2 -21 32 -53 -54 0
2 3 -26 55 56 0
2 3 -26 55 -56 0
2 3 -26 -55 56 0
2 3 -26 -55 -56 0
-2 22 44 57 58 0
-2 22 44 57 -58 0
-2 22 44 -57 58 0
-2 22 44 -57 -58 0
-2 -22 44 59 60 0
-2 -22 44 59 -60 0
-2 -22 44 -59 60 0
-2 -22 44 -59 -60 0
-2 23 -44 61 62 0
-2 23 -44 61 -62 0
-2 23 -44 -61 62 0
-2 23 -44 -61 -62 0
3 -23 41 63 64 0
3 -23 41 63 -64 0
3 -23 41 -63 64 0
3 -23 41 -63 -64 0
3 -41 -44 65 66 0
3 -41 -44 65 -66 0
3 -41 -44 -65 66 0
3 -41 -44 -65 -66 0
-3 9 20 67 68 0
-3 9 20 67 -68 0
-3 9 20 -67 68 0
-3 9 20 -67 -68 0
-3 -20 32 69 70 0
-3 -20 32 69 -70 0
-3 -20 32 -69 70 0
-3 -20 32 -69 -70 0
7 9 -32 71 72 0
7 9 -32 71 -72 0
7 9 -32 -71 72 0
7 9 -32 -71 -72 0
-7 16 -32 73 74 0
-7 16 -32 73 -74 0
-7 16 -32 -73 74 0
-7 16 -32 -73 -74 0
9 -16 -32 75 76 0
9 -16 -32 75 -76 0
9 -16 -32 -75 76 0
9 -16 -32 -75 -76 0
1 16 37 77 78 0
1 16 37 77 -78 0
1 16 37 -77 78 0
1 16 37 -77 -78 0
-1 16 26 79 80 0
-1 16 26 79 -80 0
-1 16 26 -79 80 0
-1 16 26 -79 -80 0
-16 26 37 81 82 0
-16 26 37 81 -82 0
-16 26 37 -81 82 0
-16 26 37 -81 -82 0
-9 -26 37 83 84 0
-9 -26 37 83 -84 0
-9 -26 37 -83 84 0
-9 -26 37 -83 -84 0
5 -9 46 85 86 0
5 -9 46 85 -86 0
5 -9 46 -85 86 0
5 -9 46 -85 -86 0
11 21 -46 87 88 0
11 21 -46 87 -88 0
11 21 -46 -87 88 0
11 21 -46 -87 -88 0
5 21 -46 89 90 0
5 21 -46 89 -90 0
5 21 -46 -89 90 0
5 21 -46 -89 -90 0
-5 21 39 91 92 0
-5 21 39 91 -92 0
-5 21 39 -91 92 0
-5 21 39 -91 -92 0
-5 -37 -39 93 94 0
-5 -37 -39 93 -94 0
-5 -37 -39 -93 94 0
-5 -37 -39 -93 -94 0
-9 -21 -37 95 96 0
-9 -21 -37 95 -96 0
-9 -21 -37 -95 96 0
-9 -21 -37 -95 -96 0
10 -19 -48 97 98 0
10 -19 -48 97 -98 0
10 -19 -48 -97 98 0
10 -19 -48 -97 -98 0
10 -13 -19 99 100 0
10 -13 -19 99 -100 0
10 -13 -19 -99 100 0
10 -13 -19 -99 -100 0
5 -36 47 101 102 0
5 -36 47 101 -102 0
5 -36 47 -101 102 0
5 -36 47 -101 -102 0
-5 -36 47 103 104 0
-5 -36 47 103 -104 0
-5 -36 47 -103 104 0
-5 -36 47 -103 -104 0
-16 42 -43 105 106 0
-16 42 -43 105 -106 0
-16 42 -43 -105 106 0
-16 42 -43 -105 -106 0
-1 13 -39 107 108 0
-1 13 -39 107 -108 0
-1 13 -39 -107 108 0
-1 13 -39 -107 -108 0
8 -27 30 109 110 0
8 -27 30 109 -110 0
8 -27 30 -109 110 0
8 -27 30 -109 -110 0
13 18 -30 111 112 0
13 18 -30 111 -112 0
13 18 -30 -111 112 0
13 18 -30 -111 -112 0
8 13 -18 113 114 0
8 13 -18 113 -114 0
8 13 -18 -113 114 0
8 13 -18 -113 -114 0
-13 15 -17 115 116 0
-13 15 -17 115 -116 0
-13 15 -17 -115 116 0
-13 15 -17 -115 -116 0
-13 -15 -30 117 118 0
-13 -15 -30 117 -118 0
-13 -15 -30 -117 118 0
-13 -15 -30 -117 -118 0
-17 -27 -45 119 120 0
-17 -27 -45 119 -120 0
-17 -27 -45 -119 120 0
-17 -27 -45 -119 -120 0
-12 -27 -45 121 122 0
-12 -27 -45 121 -122 0
-12 -27 -45 -121 122 0
-12 -27 -45 -121 -122 0
-18 25 40 123 124 0
-18 25 40 123 -124 0
-18 25 40 -123 124 0
-18 25 40 -123 -124 0
-18 34 -40 125 126 0
-18 34 -40 125 -126 0
-18 34 -40 -125 126 0
-18 34 -40 -125 -126 0
25 -34 48 127 128 0
25 -34 48 127 -128 0
25 -34 48 -127 128 0
25 -34 48 -127 -128 0
-19 -25 48 129 130 0
-19 -25 48 129 -130 0
-19 -25 48 -129 130 0
-19 -25 48 -129 -130 0
-1 -12 -34 131 132 0
-1 -12 -34 131 -132 0
-1 -12 -34 -131 132 0
-1 -12 -34 -131 -132 0
20 -25 -43 133 134 0
20 -25 -43 133 -134 0
20 -25 -43 -133 134 0
20 -25 -43 -133 -134 0
8 19 -45 135 136 0
8 19 -45 135 -136 0
8 19 -45 -135 136 0
8 19 -45 -135 -136 0
17 29 34 137 138 0
17 29 34 137 -138 0
17 29 34 -137 138 0
17 29 34 -137 -138 0
-17 29 41 139 140 0
-17 29 41 139 -140 0
-17 29 41 -139 140 0
-17 29 41 -139 -140 0
15 -31 -35 141 142 0
15 -31 -35 141 -142 0
15 -31 -35 -141 142 0
15 -31 -35 -141 -142 0
-15 -31 -35 143 144 0
-15 -31 -35 143 -144 0
-15 -31 -35 -143 144 0
-15 -31 -35 -143 -144 0
34 39 -43 145 146 0
34 39 -43 145 -146 0
34 39 -43 -145 146 0
34 39 -43 -145 -146 0
-11 -14 45 147 148 0
-11 -14 45 147 -148 0
-11 -14 45 -147 148 0
-11 -14 45 -147 -148 0
-11 -12 -14 149 150 0
-11 -12 -14 149 -150 0
-11 -12 -14 -149 150 0
-11 -12 -14 -149 -150 0
-24 28 -39 151 152 0
-24 28 -39 151 -152 0
-24 28 -39 -151 152 0
-24 28 -39 -151 -152 0
-8 -24 -30 153 154 0
-8 -24 -30 153 -154 0
-8 -24 -30 -153 154 0
-8 -24 -30 -153 -154 0
7 -25 45 155 156 0
7 -25 45 155 -156 0
7 -25 45 -155 156 0
7 -25 45 -155 -156 0
-7 -44 45 157 158 0
-7 -44 45 157 -158 0
-7 -44 45 -157 158 0
-7 -44 45 -157 -158 0
-20 36 50 159 160 0
-20 36 50 159 -160 0
-20 36 50 -159 160 0
-20 36 50 -159 -160 0
-8 36 50 161 162 0
-8 36 50 161 -162 0
-8 36 50 -161 162 0
-8 36 50 -161 -162 0
-8 -20 -50 163 164 0
-8 -20 -50 163 -164 0
-8 -20 -50 -163 164 0
-8 -20 -50 -163 -164 0
20 -41 44 165 166 0
20 -41 44 165 -166 0
20 -41 44 -165 166 0
20 -41 44 -165 -166 0
28 -33 39 167 168 0
28 -33 39 167 -168 0
28 -33 39 -167 168 0
28 -33 39 -167 -168 0
28 -33 47 169 170 0
28 -33 47 169 -170 0
28 -33 47 -169 170 0
28 -33 47 -169 -170 0
10 27 38 171 172 0
10 27 38 171 -172 0
10 27 38 -171 172 0
10 27 38 -171 -172 0
-10 27 30 173 174 0
-10 27 30 173 -174 0
-10 27 30 -173 174 0
-10 27 30 -173 -174 0
4 -10 38 175 176 0
4 -10 38 175 -176 0
4 -10 38 -175 176 0
4 -10 38 -175 -176 0
-6 -35 41 177 178 0
-6 -35 41 177 -178 0
-6 -35 41 -177 178 0
-6 -35 41 -177 -178 0
12 18 22 179 180 0
12 18 22 179 -180 0
12 18 22 -179 180 0
12 18 22 -179 -180 0
17 22 30 181 182 0
17 22 30 181 -182 0
17 22 30 -181 182 0
17 22 30 -181 -182 0
12 29 42 183 184 0
12 29 42 183 -184 0
12 29 42 -183 184 0
12 29 42 -183 -184 0
-4 23 31 185 186 0
-4 23 31 185 -186 0
-4 23 31 -185 186 0
-4 23 31 -185 -186 0
1 -4 -31 187 188 0
1 -4 -31 187 -188 0
1 -4 -31 -187 188 0
1 -4 -31 -187 -188 0
-4 -6 -22 189 190 0
-4 -6 -22 189 -190 0
-4 -6 -22 -189 190 0
-4 -6 -22 -189 -190 0
-22 40 50 191 192 0
-22 40 50 191 -192 0
-22 40 50 -191 192 0
-22 40 50 -191 -192 0
4 -33 43 193 194 0
4 -33 43 193 -194 0
4 -33 43 -193 194 0
4 -33 43 -193 -194 0
-6 -21 42 195 196 0
-6 -21 42 195 -196 0
-6 -21 42 -195 196 0
-6 -21 42 -195 -196 0
7 -24 -47 197 198 0
7 -24 -47 197 -198 0
7 -24 -47 -197 198 0
7 -24 -47 -197 -198 0
-3 31 -46 199 200 0
-3 31 -46 199 -200 0
-3 31 -46 -199 200 0
-3 31 -46 -199 -200 0
4 12 -36 201 202 0
4 12 -36 201 -202 0
4 12 -36 -201 202 0
4 12 -36 -201 -202 0
-11 -29 36 203 204 0
-11 -29 36 203 -204 0
-11 -29 36 -203 204 0
-11 -29 36 -203 -204 0
-14 -23 -48 205 206 0
-14 -23 -48 205 -206 0
-14 -23 -48 -205 206 0
-14 -23 -48 -205 -206 0
-23 -37 -48 207 208 0
-23 -37 -48 207 -208 0
-23 -37 -48 -207 208 0
-23 -37 -48 -207 -208 0
15 -42 43 209 210 0
15 -42 43 209 -210 0
15 -42 43 -209 210 0
15 -42 43 -209 -210 0
-7 24 -50 211 212 0
-7 24 -50 211 -212 0
-7 24 -50 -211 212 0
-7 24 -50 -211 -212 0
-10 33 46 213 214 0
-10 33 46 213 -214 0
-10 33 46 -213 214 0
-10 33 46 -213 -214 0
40 -42 46 215 216 0
40 -42 46 215 -216 0
40 -42 46 -215 216 0
40 -42 46 -215 -216 0
14 24 -49 217 218 0
14 24 -49 217 -218 0
14 24 -49 -217 218 0
14 24 -49 -217 -218 0
11 17 -38 219 220 0
11 17 -38 219 -220 0
11 17 -38 -219 220 0
11 17 -38 -219 -220 0
19 -28 -47 221 222 0
19 -28 -47 221 -222 0
19 -28 -47 -221 222 0
19 -28 -47 -221 -222 0
14 24 27 223 224 0
14 24 27 223 -224 0
14 24 27 -223 224 0
14 24 27 -223 -224 0
6 -15 43 225 226 0
6 -15 43 225 -226 0
6 -15 43 -225 226 0
6 -15 43 -225 -226 0
11 18 -41 227 228 0
11 18 -41 227 -228 0
11 18 -41 -227 228 0
11 18 -41 -227 -228 0
1 6 49 229 230 0
1 6 49 229 -230 0
1 6 49 -229 230 0
1 6 49 -229 -230 0
-29 -47 -50 231 232 0
-29 -47 -50 231 -232 0
-29 -47 -50 -231 232 0
-29 -47 -50 -231 -232 0
25 -34 -38 233 234 0
25 -34 -38 233 -234 0
25 -34 -38 -233 234 0
25 -34 -38 -233 -234 0
6 31 -49 235 236 0
6 31 -49 235 -236 0
6 31 -49 -235 236 0
6 31 -49 -235 -236 0
33 35 237 238 239 0
33 35 237 238 -239 0
33 35 237 -238 239 0
33 35 237 -238 -239 0
33 35 -237 238 239 0
33 35 -237 238 -239 0
33 35 -237 -238 239 0
33 35 -237 -238 -239 0
33 35 48 240 241 0
33 35 48 240 -241 0
33 35 48 -240 241 0
33 35 48 -240 -241 0
49 -49 242 243 244 0
49 -49 242 243 -244 0
49 -49 242 -243 244 0
49 -49 242 -243 -244 0
49 -49 -242 243 244 0
49 -49 -242 243 -244 0
49 -49 -242 -243 244 0
49 -49 -242 -243 -244 0
23 -29 -40 245 246 0
23 -29 -40 245 -246 0
23 -29 -40 -245 246 0
23 -29 -40 -245 -246 0
19 -26 -42 247 248 0
19 -26 -42 247 -248 0
19 -26 -42 -247 248 0
19 -26 -42 -247 -248 0
14 38 -38 249 250 0
14 38 -38 249 -250 0
14 38 -38 -249 250 0
14 38 -38 -249 -250 0
-28 -40 251 252 253 0
-28 -40 251 252 -253 0
-28 -40 251 -252 253 0
-28 -40 251 -252 -253 0
-28 -40 -251 252 253 0
-28 -40 -251 252 -253 0
-28 -40 -251 -252 253 0
-28 -40 -251 -252 -253 0
